problems/csplib-prob024/Langford-models/noch/O2/minion/model-langford_2_7-solution000001.eprime-solution
language ESSENCE' 1.0

letting seq_Function1D be [1, 4, 1, 5, 6, 7, 4, 2, 3, 5, 2, 6, 3, 7; int(1..14)]
