problems/csplib-prob024/Langford-models/noch/O2/minion/model-langford_2_7-solution000001.solution
language Essence 1.3

letting seq be
        function(1 --> 1, 2 --> 4, 3 --> 1, 4 --> 5, 5 --> 6, 6 --> 7, 7 --> 4, 8 --> 2, 9 --> 3, 10 --> 5, 11 --> 2,
                 12 --> 6, 13 --> 3, 14 --> 7)
